tsp_instances/TSP20/instance4.tsp
NODE_COORD_SECTION
0 148 111
1 112 58
2 63 169
3 117 78
4 2 181
5 180 200
6 123 49
7 111 48
8 158 52
9 193 6
10 199 22
11 57 13
12 133 162
13 63 96
14 5 149
15 134 135
16 183 71
17 18 175
18 118 192
19 109 184
