tsp_instances/TSP20/instance4.opt.tour
TOUR_SECTION
1
16
13
6
19
20
3
18
5
15
14
12
8
7
2
4
9
10
11
17
-1